letting n =  10
letting blocks =  [[1, 3], [1, 6], [1, 9], [1, 10], [2, 1], [2, 6], [2, 7], [2, 9], [2, 10], [3, 6], [4, 1], [4, 5], [4, 7], [5, 3], [5, 6], [5, 9], [6, 6], [7, 4], [8, 5], [8, 9], [9, 4], [9, 5], [9, 7], [9, 8], [9, 9], [10, 3], [10, 7], [10, 9]]
